StringID   Type   x       y       demand   ReadyTime   DueDate     ServiceTime   wp1 wp2 wp3 wp4 wp5 wp6 wp7 wp8 wp9 wp10 wp11 wp12 wp13 wp14 wp15 wp16 wp17 wp18 wp19 wp20 wp21
D0         d      40.0    50.0    0.0      0.0         1236.0      0.0		 6   7   8   9   10  11  12  13  14  15   16   17   18   19   20   21   22   23   24   1    2 
S1         f      73.0    52.0    0.0      0.0         1236.0      0.0 		 0.2 0.4 0.6 1   1   1   1   1   1   1    1    0.6  0.4  0.2  0    0    0    0    0    0    0
S2         f      90.0    55.0    0.0      0.0         1236.0      0.0 		 0   0.1 0.2 0.3 0.3 0.2 0.2 0.2 0.2 0.3  0.3  0.2  0.1  0.0  0    0    0    0    0    0    0
S3         f      55.0    79.0    0.0      0.0         1236.0      0.0   	 0.2 0.4 0.6 1   1   1   1   1   1   1    1    0.6  0.4  0.2  0    0    0    0    0    0    0
S4         f      69.0    89.0    0.0      0.0         1236.0      0.0           0   0.1 0.2 0.3 0.3 0.2 0.2 0.2 0.2 0.3  0.3  0.2  0.1  0.0  0    0    0    0    0    0    0
S5         f      32.0    80.0    0.0      0.0         1236.0      0.0		 0.2 0.4 0.6 1   1   1   1   1   1   1    1    0.6  0.4  0.2  0    0    0    0    0    0    0
S6         f      39.0    96.0    0.0      0.0         1236.0      0.0           0.2 0.4 0.6 1   1   1   1   1   1   1    1    0.6  0.4  0.2  0    0    0    0    0    0    0
S7         f      23.0    80.0    0.0      0.0         1236.0      0.0           0   0.1 0.2 0.3 0.3 0.2 0.2 0.2 0.2 0.3  0.3  0.2  0.1  0.0  0    0    0    0    0    0    0
S8         f      4.0     83.0    0.0      0.0         1236.0      0.0		 0.2 0.4 0.6 1   1   1   1   1   1   1    1    0.6  0.4  0.2  0    0    0    0    0    0    0
S9         f      18.0    58.0    0.0      0.0         1236.0      0.0           0.2 0.4 0.6 1   1   1   1   1   1   1    1    0.6  0.4  0.2  0    0    0    0    0    0    0
S10        f      1.0     56.0    0.0      0.0         1236.0      0.0		 0   0.1 0.2 0.3 0.3 0.2 0.2 0.2 0.2 0.3  0.3  0.2  0.1  0.0  0    0    0    0    0    0    0
S11        f      13.0    31.0    0.0      0.0         1236.0      0.0   	 0   0.1 0.2 0.3 0.3 0.2 0.2 0.2 0.2 0.3  0.3  0.2  0.1  0.0  0    0    0    0    0    0    0
S12        f      -5.0    38.0    0.0      0.0         1236.0      0.0           0.2 0.4 0.6 1   1   1   1   1   1   1    1    0.6  0.4  0.2  0    0    0    0    0    0    0
S13        f      26.0    37.0    0.0      0.0         1236.0      0.0           0.2 0.4 0.6 1   1   1   1   1   1   1    1    0.6  0.4  0.2  0    0    0    0    0    0    0
S14        f      28.0    13.0    0.0      0.0         1236.0      0.0           0.2 0.4 0.6 1   1   1   1   1   1   1    1    0.6  0.4  0.2  0    0    0    0    0    0    0
S15        f      39.0    31.0    0.0      0.0         1236.0      0.0           0   0.1 0.2 0.3 0.3 0.2 0.2 0.2 0.2 0.3  0.3  0.2  0.1  0.0  0    0    0    0    0    0    0
S16        f      48.0    11.0    0.0      0.0         1236.0      0.0           0   0.1 0.2 0.3 0.3 0.2 0.2 0.2 0.2 0.3  0.3  0.2  0.1  0.0  0    0    0    0    0    0    0
S17        f      59.0    17.0    0.0      0.0         1236.0      0.0 		 0.2 0.4 0.6 1   1   1   1   1   1   1    1    0.6  0.4  0.2  0    0    0    0    0    0    0
S18        f      73.0    23.0    0.0      0.0         1236.0      0.0           0.2 0.4 0.6 1   1   1   1   1   1   1    1    0.6  0.4  0.2  0    0    0    0    0    0    0
S19        f      74.0    32.0    0.0      0.0         1236.0      0.0           0.2 0.4 0.6 1   1   1   1   1   1   1    1    0.6  0.4  0.2  0    0    0    0    0    0    0
S20        f      90.0    44.0    0.0      0.0         1236.0      0.0           0.2 0.4 0.6 1   1   1   1   1   1   1    1    0.6  0.4  0.2  0    0    0    0    0    0    0
C53        c      44.0    5.0     20.0     0.0         1100.0      90.0
C56        c      40.0    5.0     30.0     350.0       410.0       90.0
C57        c      40.0    15.0    40.0     989.0       1063.0      90.0
C58        c      38.0    5.0     30.0     256.0       320.0       90.0
C59        c      38.0    15.0    10.0     66.0        124.0       90.0
C60        c      35.0    5.0     20.0     167.0       223.0       90.0
C6         c      40.0    69.0    20.0     683.0       741.0       90.0
C7         c      40.0    66.0    20.0     0.0         1130.0      90.0
C8         c      38.0    68.0    20.0     1057.0      1125.0      90.0
C9         c      38.0    70.0    10.0     958.0       1040.0      90.0
C10        c      35.0    66.0    10.0     779.0       845.0       90.0
C11        c      35.0    69.0    10.0     869.0       941.0       90.0
C1         c      45.0    68.0    10.0     0.0         1127.0      90.0
C2         c      45.0    70.0    30.0     499.0       553.0       90.0
C3         c      42.0    66.0    10.0     0.0         1129.0      90.0
C4         c      42.0    68.0    10.0     584.0       656.0       90.0
C5         c      42.0    65.0    10.0     950.0       1026.0      90.0
C100       c      55.0    85.0    20.0     744.0       798.0       90.0
C93        c      65.0    85.0    40.0     0.0         1102.0      90.0
C97        c      60.0    85.0    30.0     645.0       707.0       90.0
C12        c      25.0    85.0    20.0     176.0       228.0       90.0
C14        c      22.0    85.0    10.0     0.0         1106.0      90.0
C16        c      20.0    85.0    40.0     358.0       416.0       90.0
C15        c      20.0    80.0    40.0     0.0         1109.0      90.0
C19        c      15.0    80.0    10.0     455.0       513.0       90.0

F Vehicle fuel tank capacity /12/
Q Vehicle load capacity /200.0/
r fuel consumption rate /0.155/
g inverse refueling rate /0.5/
v average Velocity /1.0/